
Gurobi 11.0.3 (linux64) logging started Sat Nov 23 02:06:38 2024

Set parameter LogFile to value "/home/yihong/Coding/OR_SUC/SUC_results_bigM100000_thread4/case24_ieee_rts_theta0.1_epsilon0.025_gurobi_seed430000_num_gen100_N_WDR100_load_scaling_factor1_proposed_T28quadra_cost.txt"
Set parameter TimeLimit to value 3600
Gurobi Optimizer version 11.0.3 build v11.0.3rc0 (linux64 - "Ubuntu 20.04.6 LTS")

CPU model: AMD EPYC 7532 32-Core Processor, instruction set [SSE2|AVX|AVX2]
Thread count: 64 physical cores, 128 logical processors, using up to 4 threads

Optimize a model with 60682 rows, 34821 columns and 827226 nonzeros
Model fingerprint: 0x5d72e040
Model has 2800 quadratic constraints
Variable types: 32021 continuous, 2800 integer (2800 binary)
Coefficient statistics:
  Matrix range     [3e-04, 2e+03]
  QMatrix range    [2e-03, 8e-03]
  QLMatrix range   [7e-02, 6e+01]
  Objective range  [1e+00, 1e+00]
  Bounds range     [1e+00, 1e+00]
  RHS range        [1e+00, 9e+03]
Presolve removed 49171 rows and 15046 columns
Presolve time: 0.29s
Presolved: 11511 rows, 19775 columns, 72385 nonzeros
Presolved model has 2800 quadratic constraint(s)
Variable types: 16975 continuous, 2800 integer (2800 binary)

Root relaxation: objective 5.003887e+04, 8748 iterations, 0.22 seconds (0.31 work units)

    Nodes    |    Current Node    |     Objective Bounds      |     Work
 Expl Unexpl |  Obj  Depth IntInf | Incumbent    BestBd   Gap | It/Node Time

     0     0 50038.8749    0   28          - 50038.8749      -     -    0s
     0     0 377176.909    0  847          - 377176.909      -     -    1s
     0     0 467568.000    0  750          - 467568.000      -     -    2s
     0     0 764776.353    0  776          - 764776.353      -     -    2s
     0     0 764827.388    0  578          - 764827.388      -     -    2s
     0     0 765054.946    0  419          - 765054.946      -     -    2s
     0     0 765056.087    0  419          - 765056.087      -     -    2s
     0     0 765056.353    0  447          - 765056.353      -     -    3s
     0     0 765056.357    0  447          - 765056.357      -     -    3s
     0     2 765056.357    0  447          - 765056.357      -     -    3s
   131   222 765111.688   29  316          - 765064.110      -  34.9    5s
H  270   440                    765121.51257 765070.572  0.01%  25.0    6s
*  270   440             104    765121.51257 765070.572  0.01%  25.0    6s

Cutting planes:
  Gomory: 1
  Implied bound: 400
  MIR: 76
  Flow cover: 95
  RLT: 13

Explored 460 nodes (35576 simplex iterations) in 7.38 seconds (7.63 work units)
Thread count was 4 (of 128 available processors)

Solution count 2: 765122 765122 

Optimal solution found (tolerance 1.00e-03)
Warning: max constraint violation (6.8130e-07) exceeds tolerance
Best objective 7.651215125670e+05, best bound 7.650705723488e+05, gap 0.0067%
